c 
c G(k,n,p) graph
c graph gen seed     : 71350
c number of vertices : 80
c max number of edges: 1600
c number of classes  : 2
c edge density       : 0.300000
c edge probability   : 0.600000
c data structure     : dense
c
c           Graph Stats
c number of vertices  : 80
c nonisolated vertices: 80
c number of edges     : 946
c edge density        : 0.299367
c max degree          : 39
c avg degree          : 23.65
c min degree          : 14
p col 80 946
e 1 4
e 1 5
e 1 7
e 1 13
e 1 14
e 1 18
e 1 19
e 1 20
e 1 21
e 1 27
e 1 29
e 1 30
e 1 33
e 1 34
e 1 38
e 1 40
e 1 41
e 1 42
e 1 46
e 1 48
e 1 72
e 1 75
e 1 80
e 2 7
e 2 8
e 2 14
e 2 19
e 2 20
e 2 23
e 2 27
e 2 34
e 2 38
e 2 40
e 2 41
e 2 46
e 2 51
e 2 54
e 2 59
e 3 4
e 3 5
e 3 8
e 3 13
e 3 14
e 3 16
e 3 18
e 3 19
e 3 21
e 3 23
e 3 29
e 3 38
e 3 40
e 3 45
e 3 48
e 3 72
e 3 75
e 3 80
e 4 6
e 4 9
e 4 10
e 4 11
e 4 12
e 4 17
e 4 24
e 4 32
e 4 35
e 4 37
e 4 43
e 4 47
e 4 49
e 4 50
e 4 56
e 4 58
e 4 60
e 4 61
e 4 63
e 4 65
e 4 66
e 4 67
e 4 76
e 4 77
e 4 78
e 5 6
e 5 9
e 5 11
e 5 15
e 5 22
e 5 24
e 5 25
e 5 26
e 5 31
e 5 32
e 5 35
e 5 36
e 5 37
e 5 44
e 5 47
e 5 49
e 5 52
e 5 55
e 5 56
e 5 57
e 5 58
e 5 60
e 5 61
e 5 62
e 5 63
e 5 64
e 5 65
e 5 71
e 5 76
e 5 78
e 5 79
e 6 8
e 6 13
e 6 14
e 6 18
e 6 19
e 6 23
e 6 29
e 6 30
e 6 33
e 6 34
e 6 38
e 6 40
e 6 41
e 6 45
e 6 48
e 6 54
e 6 59
e 6 75
e 6 80
e 7 10
e 7 11
e 7 17
e 7 24
e 7 31
e 7 32
e 7 35
e 7 36
e 7 43
e 7 44
e 7 47
e 7 49
e 7 52
e 7 53
e 7 55
e 7 57
e 7 58
e 7 60
e 7 61
e 7 62
e 7 64
e 7 65
e 7 66
e 7 67
e 7 69
e 7 70
e 7 71
e 7 74
e 7 76
e 7 78
e 7 79
e 8 11
e 8 17
e 8 22
e 8 24
e 8 26
e 8 28
e 8 35
e 8 36
e 8 37
e 8 39
e 8 43
e 8 47
e 8 49
e 8 50
e 8 52
e 8 53
e 8 55
e 8 56
e 8 57
e 8 60
e 8 62
e 8 63
e 8 64
e 8 66
e 8 67
e 8 68
e 8 69
e 8 73
e 8 74
e 8 77
e 9 14
e 9 16
e 9 19
e 9 20
e 9 27
e 9 33
e 9 34
e 9 38
e 9 40
e 9 41
e 9 45
e 9 51
e 9 59
e 9 72
e 9 75
e 9 80
e 10 14
e 10 18
e 10 20
e 10 21
e 10 23
e 10 27
e 10 29
e 10 30
e 10 33
e 10 34
e 10 40
e 10 41
e 10 42
e 10 45
e 10 46
e 10 48
e 10 51
e 10 54
e 10 59
e 10 75
e 11 13
e 11 14
e 11 18
e 11 21
e 11 27
e 11 30
e 11 34
e 11 40
e 11 42
e 11 54
e 11 59
e 11 80
e 12 13
e 12 14
e 12 20
e 12 23
e 12 29
e 12 33
e 12 34
e 12 40
e 12 41
e 12 46
e 12 48
e 12 51
e 12 54
e 12 59
e 12 75
e 12 80
e 13 15
e 13 22
e 13 25
e 13 26
e 13 28
e 13 31
e 13 32
e 13 35
e 13 36
e 13 37
e 13 39
e 13 44
e 13 47
e 13 49
e 13 50
e 13 52
e 13 55
e 13 56
e 13 57
e 13 63
e 13 65
e 13 66
e 13 71
e 13 76
e 13 78
e 14 15
e 14 25
e 14 26
e 14 28
e 14 32
e 14 35
e 14 39
e 14 43
e 14 44
e 14 47
e 14 53
e 14 57
e 14 58
e 14 60
e 14 61
e 14 62
e 14 64
e 14 65
e 14 66
e 14 67
e 14 68
e 14 70
e 14 71
e 14 73
e 14 74
e 14 76
e 14 79
e 15 16
e 15 18
e 15 19
e 15 20
e 15 21
e 15 23
e 15 30
e 15 40
e 15 42
e 15 46
e 15 48
e 15 51
e 15 80
e 16 25
e 16 26
e 16 28
e 16 31
e 16 32
e 16 35
e 16 36
e 16 37
e 16 39
e 16 43
e 16 44
e 16 49
e 16 50
e 16 52
e 16 57
e 16 58
e 16 60
e 16 61
e 16 62
e 16 63
e 16 65
e 16 66
e 16 67
e 16 69
e 16 70
e 16 71
e 16 73
e 16 74
e 16 77
e 17 18
e 17 20
e 17 23
e 17 27
e 17 29
e 17 30
e 17 33
e 17 34
e 17 38
e 17 41
e 17 42
e 17 45
e 17 46
e 17 48
e 17 51
e 17 54
e 17 72
e 18 22
e 18 24
e 18 25
e 18 31
e 18 32
e 18 35
e 18 36
e 18 37
e 18 39
e 18 44
e 18 49
e 18 52
e 18 55
e 18 56
e 18 58
e 18 60
e 18 61
e 18 62
e 18 63
e 18 64
e 18 65
e 18 66
e 18 67
e 18 68
e 18 69
e 18 70
e 18 71
e 18 73
e 18 74
e 18 76
e 18 77
e 18 79
e 19 24
e 19 25
e 19 31
e 19 35
e 19 36
e 19 37
e 19 39
e 19 43
e 19 44
e 19 47
e 19 50
e 19 52
e 19 53
e 19 56
e 19 57
e 19 58
e 19 61
e 19 62
e 19 63
e 19 64
e 19 67
e 19 68
e 19 69
e 19 70
e 19 73
e 19 77
e 19 78
e 19 79
e 20 22
e 20 26
e 20 28
e 20 32
e 20 35
e 20 44
e 20 49
e 20 52
e 20 53
e 20 55
e 20 57
e 20 58
e 20 60
e 20 63
e 20 66
e 20 67
e 20 69
e 20 71
e 20 74
e 20 76
e 20 77
e 20 79
e 21 22
e 21 26
e 21 28
e 21 35
e 21 36
e 21 39
e 21 43
e 21 49
e 21 50
e 21 52
e 21 55
e 21 56
e 21 58
e 21 62
e 21 64
e 21 65
e 21 67
e 21 68
e 21 70
e 21 71
e 21 74
e 21 76
e 21 78
e 21 79
e 22 29
e 22 34
e 22 38
e 22 42
e 22 46
e 22 48
e 22 51
e 22 59
e 22 75
e 22 80
e 23 24
e 23 25
e 23 26
e 23 28
e 23 31
e 23 32
e 23 36
e 23 43
e 23 44
e 23 49
e 23 50
e 23 52
e 23 55
e 23 56
e 23 58
e 23 60
e 23 61
e 23 63
e 23 66
e 23 67
e 23 69
e 23 70
e 23 71
e 23 74
e 23 76
e 23 77
e 24 29
e 24 30
e 24 33
e 24 38
e 24 40
e 24 41
e 24 42
e 24 45
e 24 54
e 24 72
e 24 80
e 25 29
e 25 30
e 25 33
e 25 34
e 25 38
e 25 41
e 25 42
e 25 46
e 25 48
e 25 59
e 25 75
e 26 27
e 26 29
e 26 40
e 26 41
e 26 48
e 26 51
e 26 59
e 26 75
e 27 28
e 27 31
e 27 36
e 27 37
e 27 39
e 27 44
e 27 50
e 27 52
e 27 58
e 27 61
e 27 62
e 27 63
e 27 64
e 27 67
e 27 69
e 27 70
e 27 71
e 27 74
e 27 76
e 27 77
e 27 79
e 28 34
e 28 38
e 28 45
e 28 46
e 28 48
e 28 51
e 28 54
e 28 59
e 28 72
e 28 75
e 28 80
e 29 31
e 29 37
e 29 39
e 29 43
e 29 47
e 29 49
e 29 52
e 29 57
e 29 58
e 29 60
e 29 61
e 29 62
e 29 63
e 29 64
e 29 65
e 29 66
e 29 68
e 29 69
e 29 71
e 29 73
e 29 76
e 29 77
e 29 79
e 30 32
e 30 36
e 30 37
e 30 39
e 30 43
e 30 44
e 30 49
e 30 52
e 30 53
e 30 55
e 30 57
e 30 60
e 30 64
e 30 65
e 30 67
e 30 68
e 30 70
e 30 71
e 30 73
e 30 76
e 30 77
e 30 78
e 30 79
e 31 34
e 31 38
e 31 41
e 31 48
e 31 51
e 31 59
e 31 72
e 31 75
e 31 80
e 32 34
e 32 38
e 32 40
e 32 42
e 32 45
e 32 46
e 32 48
e 32 59
e 32 75
e 32 80
e 33 35
e 33 37
e 33 39
e 33 44
e 33 47
e 33 49
e 33 52
e 33 55
e 33 56
e 33 57
e 33 58
e 33 60
e 33 61
e 33 64
e 33 65
e 33 66
e 33 67
e 33 69
e 33 70
e 33 74
e 34 36
e 34 37
e 34 39
e 34 43
e 34 44
e 34 47
e 34 49
e 34 55
e 34 56
e 34 57
e 34 58
e 34 60
e 34 61
e 34 62
e 34 63
e 34 65
e 34 67
e 34 71
e 34 73
e 34 76
e 34 79
e 35 40
e 35 41
e 35 46
e 35 48
e 35 54
e 35 59
e 36 40
e 36 42
e 36 48
e 36 51
e 36 54
e 36 72
e 36 75
e 37 38
e 37 40
e 37 41
e 37 42
e 37 45
e 37 46
e 37 48
e 37 54
e 37 59
e 37 80
e 38 43
e 38 44
e 38 49
e 38 50
e 38 52
e 38 53
e 38 55
e 38 56
e 38 57
e 38 60
e 38 62
e 38 63
e 38 65
e 38 70
e 38 71
e 38 74
e 38 76
e 38 77
e 38 78
e 38 79
e 39 40
e 39 42
e 39 45
e 39 46
e 39 51
e 39 75
e 40 44
e 40 47
e 40 49
e 40 53
e 40 55
e 40 57
e 40 58
e 40 60
e 40 61
e 40 62
e 40 63
e 40 64
e 40 65
e 40 68
e 40 69
e 40 71
e 40 74
e 40 77
e 40 78
e 41 43
e 41 47
e 41 49
e 41 50
e 41 55
e 41 56
e 41 57
e 41 58
e 41 60
e 41 61
e 41 63
e 41 65
e 41 67
e 41 69
e 41 70
e 41 71
e 41 73
e 41 74
e 41 77
e 41 78
e 42 43
e 42 44
e 42 49
e 42 50
e 42 52
e 42 53
e 42 56
e 42 57
e 42 58
e 42 60
e 42 61
e 42 62
e 42 63
e 42 65
e 42 67
e 42 68
e 42 71
e 42 74
e 42 76
e 42 77
e 42 79
e 43 45
e 43 48
e 43 54
e 43 59
e 43 72
e 44 46
e 44 51
e 44 54
e 44 59
e 44 72
e 44 75
e 44 80
e 45 47
e 45 49
e 45 52
e 45 53
e 45 55
e 45 56
e 45 57
e 45 60
e 45 61
e 45 64
e 45 66
e 45 67
e 45 68
e 45 73
e 45 77
e 45 78
e 46 49
e 46 50
e 46 53
e 46 58
e 46 60
e 46 62
e 46 63
e 46 64
e 46 67
e 46 68
e 46 70
e 46 71
e 46 73
e 46 76
e 46 78
e 46 79
e 47 54
e 47 59
e 47 72
e 47 80
e 48 50
e 48 55
e 48 56
e 48 57
e 48 61
e 48 63
e 48 67
e 48 68
e 48 69
e 48 71
e 48 73
e 48 77
e 48 78
e 48 79
e 49 51
e 49 54
e 49 75
e 49 80
e 50 54
e 50 59
e 50 72
e 50 75
e 51 53
e 51 56
e 51 57
e 51 58
e 51 61
e 51 62
e 51 64
e 51 65
e 51 68
e 51 73
e 51 74
e 51 76
e 51 77
e 51 78
e 51 79
e 52 72
e 52 75
e 53 54
e 53 75
e 54 55
e 54 56
e 54 58
e 54 61
e 54 62
e 54 63
e 54 64
e 54 65
e 54 67
e 54 69
e 54 70
e 54 71
e 54 76
e 54 77
e 54 78
e 54 79
e 55 75
e 56 59
e 56 72
e 56 75
e 56 80
e 57 75
e 58 59
e 58 75
e 58 80
e 59 62
e 59 64
e 59 67
e 59 68
e 59 71
e 59 73
e 59 76
e 59 78
e 60 75
e 60 80
e 61 72
e 61 80
e 62 72
e 63 75
e 63 80
e 64 72
e 64 75
e 64 80
e 65 72
e 65 75
e 65 80
e 66 72
e 66 75
e 67 72
e 67 75
e 67 80
e 68 72
e 68 75
e 68 80
e 69 72
e 69 75
e 69 80
e 70 72
e 70 75
e 71 72
e 71 75
e 72 76
e 72 77
e 72 78
e 73 75
e 73 80
e 74 75
e 74 80
e 75 76
e 75 77
e 77 80
